inputs/175.in
10
0 2 50 92 68 50 89 64 54 99 
2 0 17 97 38 83 65 96 14 55 
50 17 0 74 35 4 78 63 49 9 
92 97 74 0 54 59 29 15 52 90 
68 38 35 54 0 27 1 59 81 27 
50 83 4 59 27 0 42 66 38 13 
89 65 78 29 1 42 0 43 67 78 
64 96 63 15 59 66 43 0 69 25 
54 14 49 52 81 38 67 69 0 76 
99 55 9 90 27 13 78 25 76 0 
RRBRBBBRRB
