output/175.out
1 2 9 6 3 10 8 4 7 5 
